db/inputs/233892989410952136361361720815109331740.smt2
(set-logic QF_FP)
(declare-const x0 (_ FloatingPoint 11 53))
(declare-const x1 (_ FloatingPoint 11 53))
(declare-const x2 (_ FloatingPoint 11 53))
(declare-const x3 (_ FloatingPoint 11 53))
(declare-const x4 (_ FloatingPoint 11 53))
(declare-const x5 (_ FloatingPoint 11 53))
(declare-const x6 (_ FloatingPoint 11 53))
(declare-const x7 (_ FloatingPoint 11 53))
(declare-const x8 (_ FloatingPoint 11 53))
(declare-const x9 (_ FloatingPoint 11 53))
(declare-const x10 (_ FloatingPoint 11 53))
(declare-const x11 (_ FloatingPoint 11 53))
(declare-const x12 (_ FloatingPoint 11 53))
(declare-const x13 (_ FloatingPoint 11 53))
(declare-const x14 (_ FloatingPoint 11 53))
(declare-const x15 (_ FloatingPoint 11 53))
(declare-const x16 (_ FloatingPoint 11 53))
(assert (fp.lt (fp.neg x15) (fp.add RNE x7 x1)))
(assert (fp.geq (fp.div RNE x7 x7) (fp.sub RNE x0 x14)))
(assert (fp.gt (fp.sub RNE x7 x6) (fp.sub RNE x6 x1)))
(assert (fp.leq (fp.mul RNE x6 x11) (fp.add RNE x16 x6)))
(assert (fp.eq (fp.div RNE x8 x0) (fp.mul RNE x14 x13)))
(assert (fp.gt (fp.add RNE x4 x8) (fp.sub RNE x4 x10)))
(assert (fp.geq (fp.mul RNE x8 x1) (fp.add RNE x3 x4)))
(assert (fp.leq (fp.add RNE x0 x14) (fp.neg x15)))
(assert (fp.eq (fp.add RNE x15 x4) (fp.mul RNE x13 x5)))
(assert (fp.lt (fp.sub RNE x11 x2) (fp.sub RNE x0 x10)))
(assert (fp.lt (fp.add RNE x15 x3) (fp.sub RNE x3 x14)))
(assert (fp.geq (fp.sub RNE x10 x0) (fp.add RNE x5 x10)))
(assert (fp.lt (fp.add RNE x3 x4) (fp.div RNE x5 x7)))
(assert (fp.lt (fp.neg x6) (fp.sub RNE x7 x4)))
(assert (fp.leq (fp.div RNE x10 x14) (fp.neg x3)))
(assert (fp.lt (fp.neg x6) (fp.neg x2)))
(assert (fp.geq (fp.neg x13) (fp.neg x7)))
(assert (fp.eq (fp.div RNE x12 x13) (fp.add RNE x16 x10)))
(assert (fp.leq (fp.div RNE x11 x12) (fp.mul RNE x15 x16)))
(check-sat)
