db/data/233892989410952136361361720815109331740.z3.out
-------------------
2500.175496103
